52
2 49 75 
2 117 26 
2 71 85 
2 92 78 
2 43 5 
2 103 107 
2 6 12 
2 74 27 
2 25 38 
2 59 115 
4 22 39 97 44 
2 20 116 
2 82 101 
2 112 88 
2 46 9 
2 119 90 
2 95 40 
2 34 68 
2 118 32 
2 61 106 
2 108 54 
2 47 36 
2 77 29 
2 62 84 
3 105 28 7 
2 16 10 
2 81 53 
3 80 63 1 
2 45 100 
2 73 60 
2 11 58 
3 37 91 18 
2 79 70 
2 15 94 
3 76 30 98 
2 99 114 
2 64 23 
3 66 67 17 
2 4 14 
2 120 72 
3 51 41 96 
2 65 111 
3 13 89 110 
3 33 87 19 
3 102 35 52 
4 31 69 83 48 
2 104 56 
3 50 3 109 
3 93 42 21 
2 86 113 
3 55 24 57 
2 8 2 
